
Gurobi 11.0.1 (win64) logging started Wed May 15 12:33:56 2024

Set parameter LogFile to value "output/solver_log48.txt"
Gurobi Optimizer version 11.0.1 build v11.0.1rc0 (win64 - Windows 11.0 (22631.2))

CPU model: 11th Gen Intel(R) Core(TM) i7-1165G7 @ 2.80GHz, instruction set [SSE2|AVX|AVX2|AVX512]
Thread count: 4 physical cores, 8 logical processors, using up to 8 threads

Optimize a model with 2764 rows, 690 columns and 51179 nonzeros
Model fingerprint: 0xd25f286b
Variable types: 248 continuous, 442 integer (442 binary)
Coefficient statistics:
  Matrix range     [4e-01, 1e+05]
  Objective range  [1e+00, 1e+02]
  Bounds range     [1e+00, 1e+00]
  RHS range        [1e-02, 1e+05]

User MIP start produced solution with objective 77395.6 (0.01s)
User MIP start produced solution with objective 77395.6 (0.01s)
Loaded user MIP start with objective 77395.6

Presolve removed 303 rows and 254 columns
Presolve time: 0.09s
Presolved: 2461 rows, 436 columns, 47962 nonzeros
Variable types: 232 continuous, 204 integer (201 binary)

Root relaxation: objective 7.745419e+04, 655 iterations, 0.05 seconds (0.07 work units)

    Nodes    |    Current Node    |     Objective Bounds      |     Work
 Expl Unexpl |  Obj  Depth IntInf | Incumbent    BestBd   Gap | It/Node Time

     0     0 77454.1880    0    5 77395.5938 77454.1880  0.08%     -    0s
H    0     0                    77454.188042 77454.1880  0.00%     -    0s
     0     0 77454.1880    0    5 77454.1880 77454.1880  0.00%     -    0s

Explored 1 nodes (734 simplex iterations) in 0.32 seconds (0.36 work units)
Thread count was 8 (of 8 available processors)

Solution count 3: 77454.2 77454.2 77395.6 

Optimal solution found (tolerance 1.00e-04)
Best objective 7.745418804242e+04, best bound 7.745418804242e+04, gap 0.0000%
